language ESSENCE' 1.0

letting jobs = 102
letting horizon = 798
letting resourcesRenew = 2
letting resourcesNonrenew = 2
letting resourceLimits = [20, 21, 569, 596]
letting successors = [[2, 3, 4, 5, 6, 7, 8, 9, 10, 11, 12, 13, 14, 15, 16, 18, 19, 21, 22], [57, 49, 46, 45, 41, 36, 35, 33, 31, 30, 27, 17], [49, 42, 37, 36, 32, 28, 26, 25, 24, 17], [53, 51, 49, 46, 45, 42, 41, 35, 28, 27, 26, 20], [42, 39, 35, 31, 29, 23, 17], [57, 56, 51, 49, 47, 46, 45, 38, 36, 34, 32, 27, 26], [57, 53, 52, 46, 45, 41, 37, 34, 30, 29, 26], [54, 53, 52, 49, 45, 38, 37, 28, 24], [50, 46, 45, 38, 32, 27, 20], [69, 53, 52, 51, 49, 47, 46, 45, 44, 37, 34, 26], [57, 56, 51, 47, 46, 45, 39, 37, 27, 26], [63, 62, 56, 53, 52, 47, 46, 45, 44, 42, 36, 34, 28], [69, 56, 53, 51, 47, 46, 44, 39, 37, 34, 26], [67, 57, 56, 53, 50, 46, 43, 39, 35, 29], [69, 56, 53, 46, 44, 42, 39, 37, 36, 26], [57, 56, 53, 45, 42, 37, 34, 29], [69, 67, 63, 62, 54, 53, 51, 48, 47, 44, 43, 40, 38, 34], [67, 54, 53, 46, 43, 34, 29], [67, 62, 56, 50, 49, 43, 38, 27], [69, 60, 59, 58, 57, 56, 55, 54, 48, 47, 44, 43, 40, 39, 37], [74, 71, 69, 67, 65, 64, 62, 59, 56, 55, 54, 53, 50, 49, 44, 40], [62, 53, 51, 47, 43, 38, 30], [69, 63, 62, 60, 59, 56, 50, 47, 45, 43, 37], [67, 62, 56, 55, 47, 46, 44, 40, 34], [74, 69, 67, 63, 61, 59, 53, 52, 45, 43, 40], [74, 71, 67, 63, 62, 61, 60, 55, 54, 48, 43, 40], [74, 72, 71, 69, 60, 59, 58, 55, 54, 52, 48, 44], [74, 69, 67, 61, 60, 55, 50, 48, 43, 40], [74, 69, 64, 62, 60, 55, 49, 47, 44, 40], [84, 74, 73, 72, 71, 67, 66, 65, 64, 63, 59, 58, 55, 44], [85, 78, 75, 74, 73, 72, 70, 64, 61, 59, 58, 55, 53], [83, 78, 77, 67, 66, 64, 63, 62, 60, 59, 58, 40], [83, 77, 76, 75, 74, 73, 71, 64, 53], [99, 85, 83, 77, 72, 70, 66, 59, 50], [101, 70, 69, 60, 59, 58, 52], [101, 99, 97, 83, 78, 76, 75, 74, 72, 70, 67, 59, 58], [101, 99, 85, 84, 83, 81, 79, 77, 76, 75, 74, 73, 68, 67, 66], [97, 85, 84, 83, 82, 81, 80, 78, 77, 75, 74, 72, 71, 70, 68], [100, 85, 84, 82, 80, 76, 73, 71, 70, 68, 66, 63], [101, 100, 99, 97, 92, 91, 85, 84, 82, 81, 80, 76, 75, 72, 70, 68], [101, 100, 99, 83, 71, 68, 65, 56], [101, 99, 98, 97, 96, 91, 84, 83, 82, 81, 80, 78, 76, 73, 71, 70], [100, 99, 98, 93, 84, 83, 82, 81, 78, 76, 73, 72, 70, 66], [101, 100, 97, 95, 85, 81, 80, 79, 78, 77, 75, 61], [99, 78, 75, 73, 65, 64, 58], [100, 90, 84, 81, 80, 76, 74, 72, 71, 66, 65], [100, 99, 97, 94, 92, 91, 85, 82, 80, 75, 71, 70, 68], [99, 98, 97, 94, 90, 84, 79, 75, 65, 64], [98, 95, 85, 83, 81, 79, 77, 76, 66, 63], [101, 97, 96, 89, 84, 82, 78, 58], [100, 98, 85, 78, 76, 66, 55], [100, 99, 98, 95, 93, 90, 83, 82, 79, 75, 73, 66], [94, 82, 81, 68, 66, 60], [100, 99, 98, 97, 96, 95, 94, 93, 91, 90, 89, 88, 87, 83, 82], [99, 97, 96, 95, 94, 92, 91, 90, 89, 83, 80, 79], [97, 93, 80, 76, 73, 70], [100, 98, 97, 91, 90, 89, 86, 79, 73], [100, 92, 91, 81, 80, 68], [100, 92, 91, 89, 82, 68], [100, 99, 98, 96, 93, 92, 90, 89, 88, 87, 84], [99, 93, 92, 91, 89, 88, 87, 83, 76], [99, 98, 97, 93, 92, 91, 89, 87, 85], [101, 97, 94, 92, 91, 90, 87, 75], [101, 95, 91, 89, 87, 81, 80], [96, 93, 92, 88, 87, 86, 77], [97, 96, 91, 89, 88, 87, 86], [93, 90, 87, 82, 80], [98, 95, 93, 90, 88, 87], [100, 99, 93, 89, 87, 86], [95, 90, 89, 86, 79], [95, 93, 88, 86, 79], [95, 86, 79], [94, 92, 88], [96, 94, 92], [96, 86], [94, 86], [91, 89], [94, 87], [87], [88], [86], [86], [86], [86], [90], [102], [102], [102], [102], [102], [102], [102], [102], [102], [102], [102], [102], [102], [102], [102], [102], []]
letting durations = [[0], [6, 8, 9], [2, 3, 8], [5, 6, 7], [1, 2, 4], [2, 3, 4], [4, 7, 8], [6, 8, 9], [4, 8, 9], [5, 8, 9], [2, 3, 4], [2, 7, 8], [3, 4, 6], [3, 4, 10], [2, 5, 6], [1, 6, 10], [1, 8, 9], [6, 7, 9], [1, 4, 5], [6, 7, 9], [6, 8, 10], [1, 9, 10], [2, 5, 8], [4, 7, 10], [5, 8, 10], [4, 9, 10], [6, 7, 8], [1, 3, 5], [1, 2, 8], [3, 4, 10], [2, 3, 4], [3, 4, 8], [3, 4, 9], [7, 8, 10], [3, 4, 9], [4, 6, 10], [2, 7, 9], [1, 2, 4], [4, 5, 6], [1, 5, 10], [2, 3, 5], [1, 2, 10], [3, 8, 9], [2, 3, 9], [3, 4, 6], [6, 8, 9], [1, 2, 3], [4, 7, 10], [7, 9, 10], [2, 7, 9], [3, 4, 5], [2, 3, 7], [2, 5, 6], [3, 7, 10], [3, 9, 10], [4, 8, 9], [3, 6, 9], [2, 5, 6], [2, 3, 10], [3, 5, 7], [3, 4, 5], [8, 9, 10], [3, 5, 8], [1, 6, 9], [4, 8, 10], [3, 5, 6], [1, 4, 7], [1, 3, 6], [2, 6, 9], [2, 3, 9], [1, 2, 10], [2, 8, 10], [1, 5, 8], [1, 8, 9], [3, 5, 8], [6, 7, 9], [2, 5, 6], [2, 3, 4], [2, 7, 10], [9, 9, 10], [1, 8, 9], [1, 2, 5], [7, 8, 10], [1, 3, 7], [1, 2, 3], [2, 4, 5], [1, 5, 7], [5, 9, 10], [1, 3, 7], [1, 2, 3], [1, 5, 10], [1, 9, 10], [1, 6, 7], [2, 4, 5], [3, 8, 10], [1, 9, 10], [1, 8, 9], [8, 9, 10], [7, 8, 9], [1, 8, 9], [3, 7, 10], [0]]
letting resourceUsage = [[[0, 0, 0, 0]], [[4, 2, 5, 8], [3, 1, 5, 7], [3, 1, 1, 7]], [[4, 3, 5, 7], [2, 3, 4, 6], [1, 2, 4, 6]], [[4, 4, 5, 8], [4, 3, 5, 4], [3, 2, 5, 2]], [[2, 4, 5, 7], [1, 4, 4, 6], [1, 4, 3, 6]], [[5, 4, 10, 3], [5, 4, 6, 2], [5, 4, 2, 2]], [[4, 4, 9, 8], [2, 4, 7, 7], [2, 3, 4, 5]], [[4, 5, 4, 8], [4, 3, 3, 6], [3, 2, 3, 6]], [[3, 4, 4, 10], [3, 4, 4, 6], [2, 4, 4, 4]], [[3, 5, 6, 5], [3, 5, 5, 5], [3, 5, 5, 4]], [[2, 4, 6, 7], [1, 4, 6, 4], [1, 4, 6, 3]], [[4, 5, 5, 3], [2, 5, 3, 3], [1, 5, 3, 3]], [[3, 4, 7, 6], [2, 4, 6, 6], [2, 4, 6, 5]], [[3, 4, 10, 10], [2, 3, 8, 9], [2, 3, 8, 8]], [[5, 2, 10, 5], [5, 2, 9, 5], [5, 2, 9, 3]], [[5, 4, 2, 9], [5, 3, 1, 9], [5, 1, 1, 9]], [[2, 4, 10, 6], [2, 3, 5, 5], [1, 2, 2, 3]], [[2, 4, 7, 2], [2, 4, 6, 1], [2, 4, 3, 1]], [[4, 3, 6, 8], [3, 2, 3, 8], [2, 2, 2, 8]], [[3, 2, 5, 7], [3, 2, 5, 6], [3, 2, 3, 5]], [[4, 2, 7, 6], [3, 1, 4, 6], [3, 1, 4, 5]], [[3, 3, 6, 9], [1, 3, 5, 9], [1, 3, 5, 8]], [[2, 4, 4, 5], [1, 2, 4, 5], [1, 2, 4, 4]], [[4, 3, 9, 5], [4, 3, 7, 4], [3, 3, 5, 3]], [[3, 2, 7, 9], [3, 2, 3, 6], [3, 2, 3, 2]], [[3, 4, 5, 6], [2, 3, 3, 4], [2, 3, 1, 2]], [[4, 5, 10, 7], [2, 3, 10, 6], [2, 1, 10, 4]], [[4, 2, 2, 5], [3, 2, 1, 4], [2, 1, 1, 3]], [[3, 3, 4, 7], [3, 3, 2, 7], [3, 1, 2, 1]], [[4, 2, 7, 6], [4, 2, 5, 6], [3, 2, 4, 5]], [[4, 3, 2, 8], [4, 2, 2, 7], [4, 1, 2, 6]], [[4, 4, 5, 7], [4, 3, 5, 5], [4, 3, 5, 3]], [[3, 3, 5, 8], [2, 2, 5, 8], [2, 1, 5, 6]], [[4, 4, 9, 2], [4, 4, 8, 2], [2, 2, 6, 2]], [[5, 4, 9, 4], [3, 2, 5, 2], [1, 2, 4, 2]], [[3, 5, 9, 9], [3, 2, 9, 8], [2, 2, 9, 6]], [[3, 4, 8, 1], [2, 4, 5, 1], [2, 2, 3, 1]], [[4, 2, 9, 8], [2, 2, 9, 8], [2, 2, 8, 8]], [[4, 3, 8, 10], [2, 2, 6, 10], [1, 2, 6, 10]], [[5, 5, 6, 8], [5, 5, 3, 7], [5, 5, 1, 4]], [[1, 5, 6, 7], [1, 4, 5, 6], [1, 4, 2, 6]], [[3, 4, 5, 7], [3, 3, 5, 5], [1, 3, 4, 4]], [[4, 2, 4, 6], [3, 2, 3, 3], [3, 1, 2, 3]], [[4, 3, 5, 7], [3, 2, 3, 6], [1, 1, 3, 4]], [[3, 5, 6, 7], [3, 3, 6, 5], [2, 1, 3, 4]], [[4, 3, 7, 4], [2, 3, 5, 4], [2, 1, 5, 2]], [[5, 2, 6, 9], [4, 2, 6, 6], [2, 2, 3, 3]], [[5, 3, 6, 8], [2, 2, 3, 7], [1, 1, 3, 7]], [[3, 1, 6, 7], [3, 1, 6, 5], [1, 1, 6, 4]], [[4, 2, 7, 7], [3, 1, 7, 5], [2, 1, 7, 5]], [[4, 2, 8, 2], [3, 1, 7, 1], [3, 1, 6, 1]], [[4, 5, 2, 4], [4, 5, 2, 3], [3, 5, 2, 2]], [[1, 1, 7, 7], [1, 1, 6, 4], [1, 1, 4, 3]], [[4, 1, 8, 6], [3, 1, 7, 4], [3, 1, 4, 3]], [[3, 2, 6, 8], [2, 1, 5, 7], [2, 1, 5, 3]], [[1, 2, 4, 7], [1, 2, 2, 6], [1, 2, 1, 2]], [[1, 4, 7, 2], [1, 3, 5, 1], [1, 2, 4, 1]], [[3, 2, 6, 10], [3, 1, 5, 9], [2, 1, 5, 9]], [[4, 4, 8, 10], [3, 4, 6, 6], [2, 4, 3, 6]], [[1, 4, 3, 7], [1, 3, 3, 7], [1, 2, 3, 7]], [[5, 4, 7, 4], [4, 4, 6, 3], [4, 4, 6, 2]], [[3, 4, 8, 4], [3, 3, 5, 3], [1, 1, 4, 2]], [[5, 5, 7, 7], [4, 3, 7, 5], [4, 3, 7, 4]], [[4, 2, 7, 5], [4, 2, 5, 4], [3, 1, 4, 3]], [[5, 2, 10, 8], [5, 1, 10, 5], [5, 1, 10, 4]], [[4, 3, 7, 8], [3, 2, 6, 8], [2, 2, 3, 6]], [[2, 2, 3, 8], [1, 2, 3, 7], [1, 2, 3, 6]], [[4, 5, 9, 5], [2, 4, 4, 5], [1, 3, 3, 5]], [[3, 4, 6, 9], [2, 4, 6, 7], [2, 3, 5, 3]], [[4, 4, 3, 9], [3, 4, 2, 4], [2, 2, 1, 3]], [[5, 3, 6, 4], [2, 3, 5, 4], [2, 3, 3, 3]], [[4, 5, 4, 6], [4, 4, 4, 6], [4, 3, 4, 6]], [[2, 5, 8, 8], [2, 3, 6, 8], [2, 1, 6, 7]], [[4, 3, 3, 8], [3, 2, 2, 7], [2, 2, 1, 6]], [[4, 3, 10, 5], [3, 3, 9, 5], [3, 3, 9, 4]], [[5, 4, 7, 5], [4, 3, 7, 3], [4, 2, 7, 3]], [[3, 3, 4, 10], [3, 3, 4, 9], [3, 2, 3, 9]], [[4, 4, 10, 8], [3, 2, 4, 5], [3, 2, 3, 1]], [[2, 5, 7, 7], [1, 3, 5, 5], [1, 3, 4, 5]], [[4, 3, 6, 3], [3, 2, 4, 4], [3, 2, 4, 3]], [[4, 3, 9, 5], [3, 3, 9, 2], [1, 3, 9, 2]], [[4, 4, 6, 4], [2, 2, 5, 4], [1, 1, 2, 4]], [[3, 2, 8, 7], [3, 2, 8, 6], [1, 2, 8, 7]], [[4, 5, 7, 3], [3, 3, 6, 2], [3, 3, 5, 2]], [[4, 4, 3, 9], [3, 3, 2, 9], [3, 2, 2, 7]], [[5, 5, 4, 4], [4, 4, 3, 4], [3, 3, 3, 4]], [[3, 5, 4, 8], [3, 5, 4, 4], [1, 5, 4, 4]], [[4, 5, 3, 7], [3, 4, 3, 6], [3, 2, 3, 5]], [[2, 4, 7, 6], [2, 3, 7, 6], [2, 3, 5, 6]], [[5, 4, 1, 9], [4, 2, 1, 7], [4, 2, 1, 4]], [[4, 1, 1, 1], [2, 1, 1, 1], [1, 1, 1, 1]], [[3, 3, 7, 8], [2, 1, 7, 6], [1, 1, 6, 5]], [[4, 5, 3, 3], [4, 4, 2, 3], [4, 2, 2, 3]], [[3, 2, 9, 8], [2, 2, 5, 7], [1, 2, 2, 6]], [[5, 3, 5, 4], [3, 3, 3, 2], [3, 2, 2, 1]], [[3, 5, 6, 6], [2, 4, 6, 5], [1, 3, 6, 5]], [[2, 3, 5, 8], [2, 3, 5, 7], [1, 3, 5, 6]], [[3, 3, 9, 5], [2, 3, 9, 3], [1, 2, 9, 2]], [[5, 3, 8, 8], [5, 3, 7, 6], [5, 2, 7, 6]], [[2, 3, 9, 9], [2, 2, 9, 8], [2, 2, 8, 7]], [[3, 1, 4, 6], [3, 1, 3, 6], [3, 1, 3, 5]], [[0, 0, 0, 0]]]
